%%%mzn-stat: initTime=0.010945677
%%%mzn-stat: objective=197
%%%mzn-stat: nodes=1134
%%%mzn-stat: restarts=0
%%%mzn-stat: peakDepth=478
%%%mzn-stat: solveTime=0.153700763
%%%mzn-stat: variables=1107
%%%mzn-stat: propagators=805
%%%mzn-stat: failures=268
%%%mzn-stat: propagations=68591
%%%mzn-stat: nogoods=268
%%%mzn-stat: AverageConflictSize=6.130597014925373
%%%mzn-stat: NumUnitNogoodsLearned=196
%%%mzn-stat: AverageLearnedNogoodLength=12.973880597014926
%%%mzn-stat: AverageBacktrackAmount=0
%%%mzn-stat: AverageLbd=5.365671641791045
%%%mzn-stat-end
maxleg = 197;
succ = array1d(1..100,[36, 13, 97, 66, 89, 38, 95, 4, 70, 42, 6, 84, 31, 43, 69, 88, 56, 27, 14, 24, 2, 60, 79, 81, 54, 16, 22, 1, 73, 25, 58, 34, 59, 78, 53, 12, 33, 7, 47, 55, 86, 80, 20, 64, 85, 90, 61, 75, 19, 94, 18, 40, 28, 100, 23, 39, 68, 46, 98, 72, 32, 49, 91, 37, 9, 17, 44, 83, 93, 63, 8, 57, 82, 3, 5, 41, 48, 65, 11, 87, 10, 92, 77, 50, 74, 29, 52, 76, 96, 35, 62, 99, 26, 30, 15, 45, 71, 21, 67, 51]);
% time elapsed: 7.28 s
----------
==========
% time elapsed: 7.28 s
%%%mzn-stat: initTime=0.010945677
%%%mzn-stat: objective=197
%%%mzn-stat: nodes=1134
%%%mzn-stat: restarts=0
%%%mzn-stat: peakDepth=478
%%%mzn-stat: solveTime=0.153716956
%%%mzn-stat: variables=1107
%%%mzn-stat: propagators=805
%%%mzn-stat: failures=268
%%%mzn-stat: propagations=68591
%%%mzn-stat: nogoods=268
%%%mzn-stat: AverageConflictSize=6.130597014925373
%%%mzn-stat: NumUnitNogoodsLearned=196
%%%mzn-stat: AverageLearnedNogoodLength=12.973880597014926
%%%mzn-stat: AverageBacktrackAmount=0
%%%mzn-stat: AverageLbd=5.365671641791045
%%%mzn-stat-end
